NAME : traveling-santa-2018-prime-paths.30884.tour
COMMENT : Length = 30884
COMMENT : Found by LKH [Keld Helsgaun] Sun Jun 12 20:00:26 2022
TYPE : TOUR
DIMENSION : 100
TOUR_SECTION
1
2
94
75
27
34
7
43
96
56
93
59
90
42
89
76
63
6
55
58
19
57
41
10
71
83
12
95
52
33
60
73
48
61
86
49
70
69
24
50
67
22
35
11
64
9
30
84
14
92
72
78
13
31
8
88
25
74
65
68
47
79
80
16
98
99
28
40
18
81
46
77
87
82
21
4
54
23
91
26
44
32
62
53
45
100
37
15
29
20
38
17
97
85
39
66
3
36
5
51
-1
EOF
